
******************************************************************************
This program contains Ipopt, a library for large-scale nonlinear optimization.
 Ipopt is released as open source code under the Eclipse Public License (EPL).
         For more information visit http://projects.coin-or.org/Ipopt
******************************************************************************

This is Ipopt version 3.12.6, running with linear solver ma57.

Number of nonzeros in equality constraint Jacobian...:      194
Number of nonzeros in inequality constraint Jacobian.:       25
Number of nonzeros in Lagrangian Hessian.............:      109

Total number of variables............................:       45
                     variables with only lower bounds:       25
                variables with lower and upper bounds:        0
                     variables with only upper bounds:        0
Total number of equality constraints.................:       20
Total number of inequality constraints...............:        1
        inequality constraints with only lower bounds:        0
   inequality constraints with lower and upper bounds:        0
        inequality constraints with only upper bounds:        1

iter    objective    inf_pr   inf_du lg(mu)  ||d||  lg(rg) alpha_du alpha_pr  ls
   0  0.0000000e+00 1.00e+00 1.00e+00  -1.0 0.00e+00    -  0.00e+00 0.00e+00   0
   1  2.3182255e+03 2.48e-02 1.27e+04  -1.7 2.32e+03    -  1.00e+00 1.00e+00h  1
   2  1.8503154e+03 5.61e-02 8.06e+03  -1.7 1.16e+03    -  1.00e+00 4.04e-01f  1
   3  1.7395713e+03 5.58e-02 7.12e+03  -1.7 9.16e+02    -  2.05e-01 1.21e-01f  1
   4  1.7181096e+03 5.50e-02 6.92e+03  -1.7 7.74e+02    -  1.00e+00 2.79e-02f  1
   5  1.5192028e+03 2.37e-01 4.85e+03  -1.7 6.30e+02    -  1.00e+00 3.21e-01f  2
   6  1.2691200e+03 1.77e-01 8.58e+02  -1.7 4.25e+02    -  1.00e+00 1.00e+00F  1
   7  1.2258706e+03 6.16e-02 7.57e+01  -1.7 1.14e+02    -  1.00e+00 1.00e+00F  1
   8  1.2240401e+03 6.64e-03 2.93e+00  -1.7 2.96e+00    -  1.00e+00 1.00e+00f  1
   9  1.2252395e+03 3.66e-06 7.16e-02  -1.7 1.20e+00    -  1.00e+00 1.00e+00h  1
iter    objective    inf_pr   inf_du lg(mu)  ||d||  lg(rg) alpha_du alpha_pr  ls
  10  1.2250020e+03 5.42e-07 7.71e-05  -3.8 2.38e-01    -  1.00e+00 1.00e+00f  1
  11  1.2250000e+03 3.75e-08 1.31e-02  -5.7 1.49e-01    -  1.00e+00 9.98e-01h  1
  12  1.2250000e+03 5.11e-11 5.04e+02  -5.7 1.04e-02  -4.0 6.75e-01 1.00e+00f  1
  13  1.2250000e+03 3.88e-11 8.23e-01  -5.7 1.45e-02  -4.5 1.00e+00 1.00e+00h  1
  14  1.2250000e+03 1.57e-11 3.00e-01  -5.7 2.07e-02  -5.0 1.00e+00 1.00e+00h  1
  15  1.2250000e+03 4.53e-12 1.92e-01  -5.7 6.03e-02  -5.4 1.00e+00 1.00e+00h  1
  16  1.2250000e+03 9.38e-12 5.29e-02  -5.7 1.82e-01  -5.9 1.00e+00 1.00e+00h  1
  17  1.2250000e+03 7.65e-11 2.26e-01  -5.7 5.56e-01  -6.4 1.00e+00 1.00e+00h  1
  18  1.2250000e+03 7.41e-10 1.90e+00  -5.7 1.76e+00  -6.9 1.00e+00 1.00e+00h  1
  19  1.2250000e+03 1.08e-08 2.15e+01  -5.7 7.48e+00  -7.3 1.00e+00 1.00e+00h  1
iter    objective    inf_pr   inf_du lg(mu)  ||d||  lg(rg) alpha_du alpha_pr  ls
  20  1.2249999e+03 1.76e-09 1.39e+01  -5.7 2.75e+00  -6.9 1.00e+00 1.00e+00h  1
  21  1.2249999e+03 4.23e-08 6.67e+01  -5.7 1.17e+01  -7.4 1.00e+00 1.00e+00h  1
  22  1.2249999e+03 3.22e-09 5.57e+01  -5.7 3.09e+00  -7.0 1.00e+00 1.00e+00h  1
  23  1.2249999e+03 3.03e-08 1.25e+02  -5.7 1.67e+01  -7.4 1.00e+00 1.00e+00h  1
  24  1.2249999e+03 6.20e-09 4.93e+01  -5.7 7.57e+00  -7.0 1.00e+00 1.00e+00h  1
  25  1.2249999e+03 1.48e-07 3.54e+02  -5.7 4.67e+01  -7.5 8.39e-01 7.33e-01h  1
  26  1.2249998e+03 2.42e-08 1.89e+02  -5.7 1.65e+01  -7.1 1.00e+00 1.00e+00f  1
  27  1.2249997e+03 1.94e-07 3.00e+03  -5.7 8.10e+01  -7.5 1.00e+00 5.45e-01h  1
  28  1.2249994e+03 1.20e-06 2.41e+04  -5.7 1.40e+03  -8.0 2.02e-01 7.35e-02f  1
  29  1.2249988e+03 4.32e-07 2.08e+03  -5.7 1.12e+02  -7.6 1.00e+00 1.00e+00f  1
iter    objective    inf_pr   inf_du lg(mu)  ||d||  lg(rg) alpha_du alpha_pr  ls
  30  1.2249976e+03 2.35e-06 3.46e+04  -5.7 4.47e+02  -8.1 1.00e+00 5.38e-01f  1
  31  1.2249902e+03 2.60e-05 7.55e+04  -5.7 1.46e+03  -8.5 1.00e+00 8.62e-01f  1
  32  1.2249894e+03 7.36e-07 3.66e+03  -5.7 6.06e+01  -7.2 1.00e+00 1.00e+00f  1
  33  1.2249883e+03 1.77e-07 8.39e+02  -5.7 1.78e+02  -7.7 1.00e+00 1.00e+00h  1
  34  1.2249850e+03 8.96e-07 3.82e+03  -5.7 5.38e+02  -8.2 1.00e+00 1.00e+00f  1
  35  1.2249749e+03 5.59e-06 2.17e+04  -5.7 1.64e+03  -8.7 1.00e+00 1.00e+00f  1
  36  1.2249442e+03 1.75e-05 4.64e+04  -5.7 5.01e+03  -9.1 1.00e+00 1.00e+00f  1
  37  1.2248518e+03 1.90e-05 2.31e+04  -5.7 1.51e+04  -9.6 1.00e+00 1.00e+00f  1
  38  1.2245743e+03 1.46e-04 1.81e+05  -5.7 4.57e+04 -10.1 1.00e+00 1.00e+00f  1
  39  1.2241349e+03 1.55e-04 1.82e+07  -5.7 1.36e+05 -10.6 1.00e+00 5.27e-01f  1
iter    objective    inf_pr   inf_du lg(mu)  ||d||  lg(rg) alpha_du alpha_pr  ls
  40  1.2228812e+03 7.50e-04 5.78e+07  -5.7 4.14e+05 -11.0 1.00e+00 4.98e-01f  1
  41  1.2192950e+03 2.89e-03 1.86e+08  -5.7 1.24e+06 -11.5 1.00e+00 4.69e-01f  1
  42  1.2088025e+03 1.27e-02 6.14e+08  -5.7 3.90e+06 -12.0 1.00e+00 4.38e-01f  1
  43  1.1996182e+03 1.07e-02 3.94e+06  -5.7 1.44e+06 -11.6 1.00e+00 1.00e+00f  1
  44  1.1754306e+03 1.59e-02 1.87e+08  -5.7 4.57e+06 -12.0 1.00e+00 8.28e-01f  1
  45  1.0662718e+03 1.55e-01 9.82e+08  -5.7 1.61e+07 -12.5 1.00e+00 1.00e+00f  1
  46  9.8158258e+02 1.71e-01 5.19e+10  -5.7 4.54e+08 -13.0 2.37e-01 2.06e-02f  1
  47  8.0336155e+02 5.53e-01 5.07e+10  -5.7 8.98e+07 -12.6 4.67e-01 1.66e-01f  1
  48r 8.0336155e+02 5.53e-01 1.00e+03  -0.3 0.00e+00  -4.7 0.00e+00 1.83e-08R  2
In iteration 48, 1 Slack too small, adjusting variable bound
  49r 8.0336727e+02 5.53e-01 2.04e+08  -0.3 1.59e+06    -  2.52e-06 3.60e-09f  1
iter    objective    inf_pr   inf_du lg(mu)  ||d||  lg(rg) alpha_du alpha_pr  ls
  50r 8.0428479e+02 2.95e-01 1.99e+08  -0.3 2.10e+03    -  6.15e-05 4.38e-04f  1
  51  8.0427565e+02 2.95e-01 1.94e+01  -5.7 1.47e+05  -5.2 1.36e-07 6.21e-08f  1
  52  8.0424642e+02 2.95e-01 2.22e+01  -5.7 2.36e+05  -5.7 9.63e-08 1.24e-07f  1
  53  8.0421294e+02 2.95e-01 8.76e+03  -5.7 4.90e+05  -6.2 5.75e-08 6.82e-08f  1
  54  8.0418960e+02 2.95e-01 2.13e+05  -5.7 1.44e+06  -6.6 1.19e-04 1.62e-08f  1
  55  7.8685727e+02 2.95e-01 3.05e+05  -5.7 3.26e+06  -7.1 2.88e-05 5.32e-06f  1
In iteration 55, 1 Slack too small, adjusting variable bound
  56  7.8684991e+02 2.95e-01 1.49e+09  -5.7 7.96e+06  -7.6 4.62e-03 9.24e-10f  1
  57  6.4767433e+02 2.95e-01 1.65e+09  -5.7 2.34e+07  -8.1 4.54e-04 5.95e-06f  1
  58  6.4730836e+02 2.95e-01 4.11e+09  -5.7 3.65e+07  -8.5 1.13e-03 1.00e-08f  1
  59  4.7977131e+02 2.99e-01 1.04e+11  -5.7 1.13e+06  -9.0 2.44e-02 5.42e-04f  1
iter    objective    inf_pr   inf_du lg(mu)  ||d||  lg(rg) alpha_du alpha_pr  ls
  60 -9.4256933e+03 2.99e-01 5.73e+10  -5.7 4.06e+08  -9.5 1.21e-04 2.80e-05f  1
  61 -3.8253628e+06 1.54e+00 1.80e+12  -5.7 1.21e+09 -10.0 2.25e-10 3.57e-03f  1
  62 -3.8254097e+06 1.48e+00 1.80e+12  -5.7 1.91e+04  -4.1 3.29e-03 2.46e-03f  1
  63 -3.8254098e+06 1.48e+00 1.80e+12  -5.7 4.09e+04  -4.6 3.56e-03 2.93e-06f  1
  64r-3.8254098e+06 1.48e+00 1.00e+03   0.2 0.00e+00  -5.1 0.00e+00 5.05e-13R  5
  65r-3.8254098e+06 1.48e+00 3.56e+07   0.2 1.44e+07    -  2.29e-05 7.95e-09f  1
  66r-3.8254091e+06 8.63e-01 4.76e+07   0.2 1.40e+05    -  1.73e-05 1.05e-03f  1
  67 -3.8254488e+06 8.63e-01 2.67e+04  -5.7 3.65e+05  -5.6 5.64e-01 1.09e-04f  1
In iteration 67, 1 Slack too small, adjusting variable bound
  68 -3.8254489e+06 8.63e-01 4.97e+06  -5.7 8.80e+05  -6.0 2.73e-05 1.65e-07f  1
  69 -3.8254652e+06 8.63e-01 2.12e+07  -5.7 1.91e+06  -6.5 4.97e-05 8.48e-06f  1
iter    objective    inf_pr   inf_du lg(mu)  ||d||  lg(rg) alpha_du alpha_pr  ls
  70 -3.8255299e+06 8.62e-01 3.94e+07  -5.7 4.94e+06  -7.0 3.01e-05 1.31e-05f  1
  71 -3.8255582e+06 8.62e-01 1.53e+09  -5.7 3.64e+07  -7.5 9.40e-05 7.76e-07f  1
  72 -3.8260796e+06 8.62e-01 2.95e+07  -5.7 9.25e+07  -7.9 1.13e-09 5.64e-06f  1
  73 -3.8261289e+06 8.62e-01 1.28e+11  -5.7 2.79e+08  -8.4 4.19e-04 1.77e-07f  1
  74 -3.8265856e+06 8.62e-01 1.29e+11  -5.7 7.00e+08  -8.9 4.30e-07 6.53e-07f  1
  75 -3.8371668e+06 1.01e+00 1.30e+11  -5.7 1.93e+09  -9.4 4.48e-06 5.49e-06f  1
  76 -3.8371668e+06 1.01e+00 1.21e+11  -5.7 5.60e+09  -9.9 6.16e-06 5.84e-12f  1
  77 -3.8819836e+06 1.01e+00 1.25e+11  -5.7 1.66e+10 -10.3 4.25e-11 2.71e-06f  1
  78 -3.8819837e+06 1.01e+00 1.25e+11  -5.7 1.56e+07  -7.2 2.07e-05 3.96e-09f  1
In iteration 78, 1 Slack too small, adjusting variable bound
  79 -3.8819837e+06 1.01e+00 1.35e+11  -5.7 1.78e+07  -6.8 7.30e-07 6.36e-11f  1
iter    objective    inf_pr   inf_du lg(mu)  ||d||  lg(rg) alpha_du alpha_pr  ls
  80 -3.8819849e+06 8.62e-01 1.32e+11  -5.7 1.49e+08  -7.2 1.06e-06 1.08e-07f  1
  81 -3.8819850e+06 8.62e-01 2.03e+11  -5.7 9.43e+07  -7.7 1.44e-05 2.73e-10f  1
  82 -3.8935092e+06 8.62e-01 1.23e+11  -5.7 1.93e+08  -8.2 4.92e-08 5.96e-05f  1
  83 -3.9727637e+06 8.62e-01 1.85e+11  -5.7 4.47e+08  -8.7 3.25e-05 1.77e-04f  1
  84 -3.9993819e+06 8.62e-01 1.96e+11  -5.7 1.19e+09  -9.2 1.19e-05 2.23e-05f  1
  85 -4.0623608e+06 8.62e-01 2.20e+11  -5.7 3.43e+09  -9.6 6.43e-10 1.84e-05f  1
  86 -4.1471621e+06 8.62e-01 2.31e+11  -5.7 1.01e+10 -10.1 1.42e-07 8.36e-06f  1
  87 -4.1473573e+06 8.62e-01 2.31e+11  -5.7 3.03e+10 -10.6 2.82e-10 6.45e-09f  1
  88 -4.1518311e+06 8.62e-01 2.31e+11  -5.7 9.07e+10 -11.1 3.97e-07 4.93e-08f  1
  89 -4.1519598e+06 8.62e-01 2.31e+11  -5.7 4.06e+10 -10.6 1.33e-12 3.17e-09f  1
iter    objective    inf_pr   inf_du lg(mu)  ||d||  lg(rg) alpha_du alpha_pr  ls
  90 -4.4878872e+06 8.64e-01 2.18e+12  -5.7 2.43e+09  -9.3 3.58e-03 1.38e-04f  1
In iteration 90, 1 Slack too small, adjusting variable bound
  91 -4.4885334e+06 8.64e-01 2.18e+12  -5.7 6.26e+09  -9.8 1.39e-06 1.03e-07f  1
  92 -5.9110485e+06 8.70e-01 2.21e+12  -5.7 1.94e+10 -10.3 6.10e-08 7.32e-05f  1
  93 -4.5011094e+07 1.41e+01 1.90e+12  -5.7 8.65e+08  -8.9 1.22e-03 4.52e-02f  1
  94 -4.8947779e+07 1.39e+01 1.87e+12  -5.7 2.70e+09  -9.4 2.81e-03 1.46e-03f  1
  95 -6.0890391e+07 1.27e+01 7.53e+11  -5.7 8.57e+09  -9.9 2.12e-02 1.39e-03f  1
In iteration 95, 1 Slack too small, adjusting variable bound
  96 -6.0890597e+07 1.27e+01 1.93e+11  -5.7 2.64e+10 -10.4 9.74e-03 7.84e-09f  1
  97 -6.1072321e+07 1.27e+01 1.92e+11  -5.7 1.11e+11 -10.8 6.14e-09 1.64e-06f  1
  98 -6.1128159e+07 1.27e+01 1.92e+11  -5.7 3.03e+10 -10.4 1.81e-11 1.84e-06f  1
In iteration 98, 1 Slack too small, adjusting variable bound
  99 -6.1144531e+07 1.27e+01 5.66e+12  -5.7 1.55e+11 -10.9 3.27e-03 1.06e-07f  1
iter    objective    inf_pr   inf_du lg(mu)  ||d||  lg(rg) alpha_du alpha_pr  ls
 100 -7.4123283e+07 1.19e+01 5.54e+12  -5.7 3.48e+10 -10.5 2.78e-06 3.73e-04f  1
 101 -1.1514091e+08 7.22e+00 5.25e+12  -5.7 1.12e+11 -10.9 1.69e-06 3.66e-04f  1
 102 -1.8011852e+08 3.49e+00 5.18e+12  -5.7 5.19e+08  -8.7 6.90e-05 1.25e-01f  1
 103 -4.3869221e+08 4.33e+00 2.62e+11  -5.7 1.56e+09  -9.2 9.58e-01 1.66e-01f  1
 104 -4.3870089e+08 2.22e+00 5.02e+11  -5.7 1.78e+04  -4.3 1.20e-05 4.87e-01f  1
 105 -4.3870251e+08 1.71e+00 5.45e+10  -5.7 6.68e+03  -3.8 6.86e-01 2.42e-01f  1
 106 -4.3870279e+08 1.69e+00 1.88e+11  -5.7 2.00e+04  -4.3 8.86e-01 1.43e-02f  1
 107 -4.3870299e+08 1.68e+00 1.61e+11  -5.7 6.01e+04  -4.8 5.17e-08 3.22e-03f  1
 108 -4.3872553e+08 8.84e-02 1.08e+08  -5.7 2.25e+04  -4.4 9.73e-01 1.00e+00f  1
 109 -4.3879316e+08 4.06e-04 2.60e+03  -5.7 6.76e+04  -4.8 1.00e+00 1.00e+00f  1
iter    objective    inf_pr   inf_du lg(mu)  ||d||  lg(rg) alpha_du alpha_pr  ls
 110 -4.3898060e+08 6.78e-04 1.65e+05  -5.7 2.03e+05  -5.3 1.16e-01 9.24e-01f  1
 111 -4.3958926e+08 1.45e-04 7.98e+02  -5.7 6.09e+05  -5.8 7.84e-01 1.00e+00f  1
 112 -4.4141527e+08 4.68e-03 6.46e+02  -5.7 1.83e+06  -6.3 7.64e-01 1.00e+00f  1
 113 -4.4689327e+08 5.02e-02 1.88e+01  -5.7 5.48e+06  -6.7 1.00e+00 1.00e+00f  1
 114 -4.6332728e+08 1.62e-02 4.04e+00  -5.7 1.64e+07  -7.2 1.00e+00 1.00e+00f  1
 115 -5.1262931e+08 1.41e-02 3.69e+01  -5.7 4.93e+07  -7.7 1.00e+00 1.00e+00f  1
 116 -6.6053541e+08 8.04e-02 1.04e+02  -5.7 1.48e+08  -8.2 1.00e+00 1.00e+00f  1
 117 -1.1042537e+09 3.66e-01 6.98e+01  -5.7 4.44e+08  -8.6 1.00e+00 1.00e+00f  1
 118 -2.4354085e+09 4.85e-01 1.86e+02  -5.7 1.33e+09  -9.1 1.00e+00 1.00e+00f  1
 119 -6.4288731e+09 5.91e-01 2.55e+02  -5.7 3.99e+09  -9.6 1.00e+00 1.00e+00f  1
iter    objective    inf_pr   inf_du lg(mu)  ||d||  lg(rg) alpha_du alpha_pr  ls
 120 -1.8409267e+10 3.21e-01 2.02e+03  -5.7 1.20e+10 -10.1 1.00e+00 1.00e+00f  1
 121 -5.4350448e+10 2.30e+00 1.09e+04  -5.7 3.59e+10 -10.6 1.00e+00 1.00e+00f  1
 122 -1.6217399e+11 1.01e+01 6.53e+04  -5.7 1.08e+11 -11.0 1.00e+00 1.00e+00f  1
 123 -4.8564462e+11 6.42e+01 3.89e+05  -5.7 3.23e+11 -11.5 1.00e+00 1.00e+00f  1
 124 -1.4560565e+12 3.81e+02 2.33e+06  -5.7 9.70e+11 -12.0 1.00e+00 1.00e+00f  1
 125 -4.3672922e+12 2.29e+03 1.40e+07  -5.7 2.91e+12 -12.5 1.00e+00 1.00e+00f  1
 126 -8.7341457e+12 2.29e+03 1.40e+07  -5.7 8.73e+12 -12.9 1.00e+00 5.00e-01f  2
 127 -1.5284426e+13 4.47e-01 9.71e+02  -5.7 2.62e+13 -13.4 1.00e+00 2.50e-01f  3
 128 -9.3887789e+13 1.23e+01 2.84e+04  -5.7 7.86e+13 -13.9 1.00e+00 1.00e+00f  1
 129 -3.2969788e+14 1.03e+02 2.52e+05  -5.7 2.36e+14 -14.4 1.00e+00 1.00e+00f  1
iter    objective    inf_pr   inf_du lg(mu)  ||d||  lg(rg) alpha_du alpha_pr  ls
 130 -1.0371281e+15 6.97e+02 1.70e+06  -5.7 7.07e+14 -14.8 1.00e+00 1.00e+00f  1
 131 -2.0982735e+15 7.36e+02 1.80e+06  -5.7 2.12e+15 -15.3 1.00e+00 5.00e-01f  2
 132 -5.2817097e+15 1.89e+03 4.60e+06  -5.7 6.37e+15 -15.8 1.00e+00 5.00e-01f  2
 133 -1.0056864e+16 5.53e+02 1.35e+06  -5.7 1.91e+16 -16.3 1.00e+00 2.50e-01f  3
 134 -2.4382327e+16 9.06e+02 2.21e+06  -5.7 5.73e+16 -16.8 1.00e+00 2.50e-01f  3
 135 -4.5870521e+16 1.50e+03 3.66e+06  -5.7 2.15e+16 -16.3 1.00e+00 1.00e+00f  1
 136 -7.8102813e+16 5.19e+02 1.26e+06  -5.7 6.45e+16 -16.8 9.84e-01 5.00e-01f  2
 137 -8.1124590e+16 2.08e+01 5.07e+04  -5.7 3.02e+15 -15.5 1.00e+00 1.00e+00f  1
 138 -9.0189922e+16 2.60e+00 6.30e+03  -5.7 9.07e+15 -16.0 9.64e-01 1.00e+00f  1
 139 -9.0614860e+16 5.01e-02 2.98e+01  -5.7 4.25e+14 -14.6 1.00e+00 1.00e+00f  1
iter    objective    inf_pr   inf_du lg(mu)  ||d||  lg(rg) alpha_du alpha_pr  ls
 140 -9.0774211e+16 6.75e-03 1.00e+00  -5.7 1.59e+14 -14.2 1.00e+00 1.00e+00f  1
 141 -9.1252266e+16 9.49e+00 8.87e+02  -5.7 4.78e+14 -14.7 1.33e-01 1.00e+00f  1
 142 -9.2686430e+16 2.39e+00 1.45e+00  -5.7 1.43e+15 -15.2 1.00e+00 1.00e+00f  1
 143 -9.6988921e+16 6.22e-01 1.00e+00  -5.7 4.30e+15 -15.6 1.00e+00 1.00e+00f  1
 144 -1.0989640e+17 1.75e-01 3.21e+00  -5.7 1.29e+16 -16.1 1.00e+00 1.00e+00f  1
 145 -1.4861882e+17 1.14e+00 3.15e+02  -5.7 3.87e+16 -16.6 2.99e-01 1.00e+00f  1
 146 -2.6478609e+17 4.50e-01 8.29e+01  -5.7 1.16e+17 -17.1 1.00e+00 1.00e+00f  1
 147 -6.1328791e+17 6.12e-01 2.11e+02  -5.7 3.49e+17 -17.5 4.38e-01 1.00e+00f  1
 148 -6.1329106e+17 9.71e-02 4.97e+01  -5.7 3.99e+12 -12.6 1.00e+00 7.91e-01f  1
Reallocating memory for MA57: lfact (2461)
 149 -6.1329354e+17 7.47e-02 2.87e+02  -5.7 1.20e+13 -13.1 2.39e-01 2.07e-01f  1
iter    objective    inf_pr   inf_du lg(mu)  ||d||  lg(rg) alpha_du alpha_pr  ls
 150 -6.1332943e+17 2.24e-02 1.00e+00  -5.7 3.59e+13 -13.6 1.00e+00 1.00e+00f  1
Reallocating memory for MA57: lfact (2668)
 151 -6.1334289e+17 3.87e-01 4.36e+03  -5.7 1.35e+13 -13.1 2.42e-01 1.00e+00f  1
 152 -6.1334678e+17 6.60e-02 6.18e+02  -5.7 5.05e+12 -12.7 1.00e+00 7.69e-01f  1
 153 -6.1335174e+17 4.38e-02 1.91e+03  -5.7 1.51e+13 -13.2 1.99e-01 3.28e-01f  1
 154 -6.1335742e+17 3.61e-03 1.00e+00  -5.7 5.68e+12 -12.8 1.00e+00 1.00e+00f  1
 155 -6.1337446e+17 1.30e-04 1.00e+00  -5.7 1.70e+13 -13.2 1.00e+00 1.00e+00f  1
 156 -6.1342556e+17 1.14e-02 1.00e+00  -5.7 5.11e+13 -13.7 1.00e+00 1.00e+00f  1
 157 -6.1344473e+17 6.85e-03 1.00e+00  -5.7 1.92e+13 -13.3 1.00e+00 1.00e+00f  1
 158 -6.1350223e+17 8.66e-01 1.00e+00  -5.7 5.75e+13 -13.8 3.72e-01 1.00e+00f  1
 159 -6.1367471e+17 2.41e-01 1.00e+00  -5.7 1.72e+14 -14.2 1.00e+00 1.00e+00f  1
iter    objective    inf_pr   inf_du lg(mu)  ||d||  lg(rg) alpha_du alpha_pr  ls
 160 -6.1419218e+17 1.24e-02 1.00e+00  -5.7 5.17e+14 -14.7 1.00e+00 1.00e+00f  1
 161 -6.1574458e+17 1.87e-01 1.00e+00  -5.7 1.55e+15 -15.2 1.00e+00 1.00e+00f  1
 162 -6.1578462e+17 7.85e-01 8.24e+02  -5.7 7.28e+13 -13.9 3.45e-01 5.50e-01f  1
 163 -6.1578629e+17 1.23e-01 3.29e+02  -5.7 3.41e+12 -12.5 3.79e-01 4.91e-01f  1
 164 -6.1578671e+17 1.19e-01 1.55e+02  -5.7 1.02e+13 -13.0 2.10e-01 4.05e-02f  1
 165 -6.1579681e+17 1.01e-01 5.67e+02  -5.7 3.07e+13 -13.5 1.00e+00 3.29e-01f  1
 166 -6.1587304e+17 9.65e-02 7.11e+01  -5.7 9.21e+13 -14.0 1.00e+00 8.28e-01f  1
 167 -6.1614934e+17 2.14e-01 1.00e+00  -5.7 2.76e+14 -14.4 1.00e+00 1.00e+00f  1
 168 -6.1616229e+17 5.84e+00 9.83e+01  -5.7 1.30e+13 -13.1 7.73e-01 1.00e+00f  1
 169 -6.1616255e+17 3.71e+00 4.73e+02  -5.7 6.07e+11 -11.8 2.40e-01 4.35e-01f  1
iter    objective    inf_pr   inf_du lg(mu)  ||d||  lg(rg) alpha_du alpha_pr  ls
 170 -6.1616437e+17 9.63e-01 1.00e+00  -5.7 1.82e+12 -12.3 1.00e+00 1.00e+00f  1
 171 -6.1616445e+17 1.85e-01 2.78e+02  -5.7 8.54e+10 -10.9 6.04e-01 8.34e-01f  1
 172 -6.1616451e+17 8.47e+02 1.22e+03  -5.7 2.56e+11 -11.4 8.68e-02 2.37e-01f  1
 173 -6.1616468e+17 6.65e+02 9.14e+02  -5.7 7.68e+11 -11.9 3.19e-02 2.28e-01f  1
 174 -6.1616468e+17 6.59e+02 9.12e+02  -5.7 5.63e+08  -8.8 9.45e-02 9.43e-03f  1
 175 -6.1616468e+17 5.85e+02 8.94e+02  -5.7 2.11e+08  -8.3 2.15e-02 1.14e-01f  1
 176 -6.1616468e+17 5.21e+02 8.43e+02  -5.7 7.91e+07  -7.9 1.43e-01 1.09e-01f  1
 177 -6.1616468e+17 4.92e+02 7.95e+02  -5.7 2.97e+07  -7.5 3.95e-02 5.65e-02f  1
 178 -6.1616468e+17 4.19e+02 7.01e+02  -5.7 8.90e+07  -7.9 2.55e-01 1.49e-01f  1
 179 -6.1616468e+17 3.17e+02 7.80e+02  -5.7 2.67e+08  -8.4 3.02e-03 2.68e-01f  1
iter    objective    inf_pr   inf_du lg(mu)  ||d||  lg(rg) alpha_du alpha_pr  ls
 180 -6.1616468e+17 1.96e+02 5.06e+02  -5.7 8.01e+08  -8.9 7.22e-01 4.09e-01f  1
 181 -6.1616468e+17 8.32e+01 1.34e+02  -5.7 2.40e+09  -9.4 1.00e+00 6.19e-01f  1
 182 -6.1616468e+17 8.31e+01 5.89e+02  -5.7 7.21e+09  -9.9 1.87e-02 1.34e-03f  1
 183 -6.1616468e+17 8.32e+01 1.16e+03  -5.7 2.16e+10 -10.3 8.25e-03 2.56e-03f  1
 184 -6.1616468e+17 8.32e+01 5.57e+07  -5.7 3.04e+09  -9.5 9.81e-02 2.64e-06f  1
 185 -6.1616468e+17 8.55e+01 5.66e+07  -5.7 9.13e+09 -10.0 1.89e-07 3.11e-07f  1
 186 -6.1616468e+17 8.55e+01 1.58e+08  -5.7 2.74e+10 -10.4 2.41e-05 7.94e-08f  1
 187 -6.1616468e+17 8.57e+01 4.35e+08  -5.7 2.46e+11 -11.4 4.59e-04 4.53e-06f  1
 188 -6.1616468e+17 8.57e+01 4.35e+08  -5.7 7.39e+11 -11.9 4.38e-07 5.62e-09f  1
 189 -6.1616469e+17 1.46e+03 2.40e+09  -5.7 2.22e+12 -12.3 3.35e-02 4.07e-03f  1
iter    objective    inf_pr   inf_du lg(mu)  ||d||  lg(rg) alpha_du alpha_pr  ls
 190 -6.1616469e+17 1.46e+03 2.39e+09  -5.7 6.09e+08  -8.8 3.70e-06 1.69e-04f  1
 191 -6.1616469e+17 1.46e+03 3.10e+09  -5.7 6.85e+08  -8.8 1.69e-05 2.49e-07f  1
 192 -6.1616469e+17 1.46e+03 4.59e+09  -5.7 7.71e+08  -8.9 3.56e-05 2.25e-06f  1
 193 -6.1616469e+17 1.46e+03 1.24e+10  -5.7 8.67e+08  -8.9 1.20e-04 1.48e-05f  1
 194 -6.1616469e+17 1.45e+03 1.35e+10  -5.7 3.25e+08  -8.5 5.46e-05 4.69e-05f  1
 195 -6.1616469e+17 1.44e+03 2.51e+11  -5.7 3.66e+08  -8.6 1.90e-03 6.93e-05f  1
 196 -6.1616469e+17 2.73e+01 2.52e+11  -5.7 3.29e+09  -9.5 1.11e-04 7.57e-05f  1
 197 -6.1616469e+17 2.73e+01 8.72e+11  -5.7 9.88e+09 -10.0 4.42e-02 9.85e-05f  1
 198 -6.1616469e+17 2.73e+01 8.65e+11  -5.7 8.89e+10 -10.9 9.25e-10 1.27e-03f  1
 199 -6.1616470e+17 2.42e+01 6.72e+11  -5.7 2.67e+11 -11.4 1.52e-08 2.67e-02f  1
In iteration 199, 1 Slack too small, adjusting variable bound
iter    objective    inf_pr   inf_du lg(mu)  ||d||  lg(rg) alpha_du alpha_pr  ls
 200 -6.1616470e+17 2.42e+01 2.28e+11  -5.7 4.48e+08  -8.3 2.22e-06 2.57e-04f  1
 201 -6.1616470e+17 2.42e+01 1.32e+13  -5.7 5.86e+08  -8.8 1.16e-02 3.88e-04f  1
 202 -6.1616470e+17 2.42e+01 1.29e+13  -5.7 1.76e+09  -9.2 7.09e-04 1.28e-03f  1
 203 -6.1616470e+17 2.63e+01 4.58e+13  -5.7 1.58e+10 -10.2 4.23e-01 3.34e-02f  1
 204 -6.1616470e+17 2.45e+01 3.90e+13  -5.7 4.75e+10 -10.7 1.49e-06 5.02e-02f  1
 205 -6.1616471e+17 2.35e+01 3.53e+13  -5.7 1.42e+11 -11.2 7.79e-07 3.33e-02f  1
 206 -6.1616476e+17 1.77e+01 3.58e+13  -5.7 4.27e+11 -11.6 1.93e-01 1.20e-01f  1
In iteration 206, 1 Slack too small, adjusting variable bound
 207 -6.1616476e+17 1.68e+01 3.27e+13  -5.7 2.50e+09  -9.4 2.42e-06 4.38e-02f  1
 208 -6.1616476e+17 1.67e+01 3.21e+13  -5.7 7.51e+09  -9.9 3.00e-03 2.19e-03f  1
In iteration 208, 1 Slack too small, adjusting variable bound
 209 -6.1616476e+17 1.59e+01 1.24e+15  -5.7 2.82e+09  -9.4 8.93e-01 4.32e-02f  1
iter    objective    inf_pr   inf_du lg(mu)  ||d||  lg(rg) alpha_du alpha_pr  ls
 210 -6.1616476e+17 4.83e+00 1.00e+15  -5.7 8.45e+09  -9.9 9.16e-02 1.94e-01f  1
 211 -6.1616476e+17 3.13e+00 9.11e+14  -5.7 2.53e+10 -10.4 9.23e-02 8.98e-02f  1
 212 -6.1616476e+17 2.40e+00 7.60e+14  -5.7 7.60e+10 -10.9 1.82e-01 1.51e-02f  1
 213 -6.1616476e+17 2.40e+00 7.45e+14  -5.7 2.28e+11 -11.4 2.04e-02 8.43e-07f  1
 214 -6.1616476e+17 2.38e+00 7.43e+14  -5.7 8.56e+10 -10.9 2.20e-03 6.30e-03f  1
 215 -6.1616476e+17 2.38e+00 7.43e+14  -5.7 2.57e+11 -11.4 5.11e-08 9.56e-05f  1
 216 -6.1616476e+17 2.38e+00 9.58e+13  -5.7 9.62e+10 -11.0 9.40e-01 2.59e-03f  1
 217 -6.1616476e+17 2.38e+00 9.63e+13  -5.7 3.61e+10 -10.6 9.94e-03 5.72e-08f  1
 218 -6.1616476e+17 2.37e+00 9.63e+13  -5.7 1.08e+11 -11.0 1.40e-06 1.05e-03f  1
 219 -6.1616476e+17 2.37e+00 1.02e+14  -5.7 4.06e+10 -10.6 3.81e-01 3.22e-05f  1
iter    objective    inf_pr   inf_du lg(mu)  ||d||  lg(rg) alpha_du alpha_pr  ls
 220 -6.1616478e+17 1.47e+00 1.04e+14  -5.7 1.22e+11 -11.1 2.69e-03 1.12e-01f  1
In iteration 220, 1 Slack too small, adjusting variable bound
 221 -6.1616478e+17 1.47e+00 4.70e+13  -5.7 3.65e+11 -11.6 3.71e-01 4.58e-03f  1
In iteration 221, 1 Slack too small, adjusting variable bound
 222 -6.1616478e+17 1.47e+00 1.44e+14  -5.7 6.00e+02  -1.7 1.94e-03 5.61e-05h  1
 223 -6.1616478e+17 1.47e+00 3.39e+14  -5.7 1.80e+03  -2.2 2.34e-03 4.05e-04f  1
In iteration 223, 1 Slack too small, adjusting variable bound
 224 -6.1616478e+17 1.45e+00 9.90e+13  -5.7 5.40e+03  -2.7 4.32e-09 4.32e-03f  1
 225 -6.1616478e+17 1.45e+00 9.90e+13  -5.7 5.14e+02  -2.2 5.15e-07 2.40e-04f  1
 226 -6.1616478e+17 1.45e+00 9.90e+13  -5.7 7.60e+06  -2.7 1.42e-06 1.42e-11h  1
 227 -6.1616478e+17 1.42e+00 1.24e+16  -5.7 6.67e+06  -2.3 1.71e-04 1.40e-06f  1
 228 -6.1616478e+17 1.35e+00 1.24e+16  -5.7 6.59e+06  -2.8 1.30e-05 1.07e-05f  1
 229 -6.1616478e+17 1.35e+00 1.19e+16  -5.7 5.50e+03  -3.3 9.18e-02 4.46e-05f  1
iter    objective    inf_pr   inf_du lg(mu)  ||d||  lg(rg) alpha_du alpha_pr  ls
 230 -6.1616478e+17 1.46e+00 1.18e+16  -5.7 1.65e+04  -3.7 3.01e-04 1.39e-02f  1
 231 -6.1616478e+17 1.46e+00 1.40e+16  -5.7 5.36e+07  -4.2 3.09e-04 4.72e-07f  1
 232 -6.1616478e+17 1.46e+00 1.40e+16  -5.7 1.46e+05  -4.7 7.95e-07 5.09e-11h  1
 233 -6.1616478e+17 1.95e+00 1.40e+16  -5.7 1.21e+08  -5.2 1.19e-07 5.20e-06f  1
 234 -6.1616478e+17 1.31e+00 1.39e+16  -5.7 3.95e+06  -6.1 2.22e-06 1.70e-02f  1
 235 -6.1616478e+17 1.31e+00 1.39e+16  -5.7 1.21e+08  -6.6 4.08e-09 4.71e-05f  1
 236 -6.1616478e+17 1.31e+00 1.47e+16  -5.7 1.19e+08  -7.1 6.56e-02 5.75e-04f  1
 237 -6.1616478e+17 1.86e+00 1.47e+16  -5.7 1.22e+08  -7.5 6.46e-04 4.05e-03f  1
 238 -6.1616478e+17 1.73e+00 1.22e+16  -5.7 1.20e+08  -8.0 3.43e-01 7.58e-03f  1
 239 -6.1616478e+17 1.76e+00 1.22e+16  -5.7 1.73e+09  -8.5 5.96e-09 2.83e-04f  1
iter    objective    inf_pr   inf_du lg(mu)  ||d||  lg(rg) alpha_du alpha_pr  ls
 240 -6.1616478e+17 1.76e+00 1.22e+16  -5.7 9.49e+08  -9.0 9.63e-05 1.42e-04f  1
 241 -6.1616478e+17 1.87e+00 1.21e+16  -5.7 2.85e+09  -9.5 3.14e-08 2.99e-03f  1
 242 -6.1616478e+17 1.85e+00 1.21e+16  -5.7 8.54e+09  -9.9 1.20e-07 3.56e-03f  1
In iteration 242, 1 Slack too small, adjusting variable bound
 243 -6.1616478e+17 1.86e+00 1.21e+16  -5.7 2.56e+10 -10.4 3.89e-10 4.97e-05f  1
 244 -6.1616478e+17 1.91e+00 1.15e+16  -5.7 3.52e+13 -10.9 1.57e-07 1.10e-06f  1
 245 -6.1616478e+17 1.90e+00 1.15e+16  -5.7 1.04e+08  -7.8 1.90e-06 3.41e-03f  1
 246 -6.1616478e+17 1.90e+00 1.37e+16  -5.7 1.04e+08  -7.3 1.49e-01 6.32e-09f  1
In iteration 246, 1 Slack too small, adjusting variable bound
 247 -6.1616478e+17 1.90e+00 1.37e+16  -5.7 6.34e+07  -7.8 4.23e-03 6.31e-05f  1
 248 -6.1616478e+17 1.86e+00 1.37e+16  -5.7 8.31e+09  -8.3 1.29e-05 8.33e-06f  1
In iteration 248, 1 Slack too small, adjusting variable bound
 249 -6.1616478e+17 1.86e+00 1.34e+16  -5.7 5.70e+08  -8.8 2.83e-02 3.81e-09f  1
iter    objective    inf_pr   inf_du lg(mu)  ||d||  lg(rg) alpha_du alpha_pr  ls
 250 -6.1616478e+17 1.86e+00 1.34e+16  -5.7 1.71e+09  -9.2 3.66e-03 1.16e-05f  1
 251 -6.1616478e+17 1.70e+00 1.00e+16  -5.7 5.13e+09  -9.7 3.89e-01 1.62e-02f  1
 252 -6.1616478e+17 1.70e+00 9.41e+15  -5.7 1.54e+10 -10.2 2.36e-02 7.94e-08f  1
In iteration 252, 1 Slack too small, adjusting variable bound
 253 -6.1616478e+17 1.70e+00 9.41e+15  -5.7 4.62e+10 -10.7 3.87e-04 1.79e-08f  1
 254 -6.1616478e+17 1.70e+00 9.41e+15  -5.7 1.39e+11 -11.1 2.14e-08 4.13e-04f  1
In iteration 254, 1 Slack too small, adjusting variable bound
 255 -6.1616478e+17 1.70e+00 9.29e+15  -5.7 5.20e+10 -10.7 2.84e-02 4.05e-04f  1
 256 -6.1616478e+17 1.69e+00 8.41e+15  -5.7 3.02e+15 -11.2 7.74e-11 1.74e-08f  1
In iteration 256, 1 Slack too small, adjusting variable bound
 257 -6.1616478e+17 1.69e+00 7.99e+15  -5.7 4.68e+11 -11.7 1.88e-08 6.62e-04f  1
 258 -6.1616478e+17 1.60e+00 8.02e+15  -5.7 5.88e+12 -10.3 3.62e-07 7.74e-07f  1
In iteration 258, 1 Slack too small, adjusting variable bound
 259 -6.1616478e+17 1.60e+00 7.12e+15  -5.7 6.58e+10 -10.8 1.71e-01 9.50e-08f  1
iter    objective    inf_pr   inf_du lg(mu)  ||d||  lg(rg) alpha_du alpha_pr  ls
 260 -6.1616478e+17 1.60e+00 7.22e+15  -5.7 1.97e+11 -11.3 3.19e-04 4.73e-07f  1
 261 -6.1616478e+17 1.69e+00 7.74e+15  -5.7 5.92e+11 -11.8 5.78e-03 2.89e-03f  1
In iteration 261, 1 Slack too small, adjusting variable bound
 262 -6.1616512e+17 1.08e+01 7.40e+15  -5.7 1.78e+12 -12.2 3.82e-02 1.91e-01f  1
In iteration 262, 1 Slack too small, adjusting variable bound
 263 -6.1616512e+17 8.00e+00 7.58e+15  -5.7 6.66e+11 -11.8 3.61e-03 2.42e-03f  1
 264 -6.1616512e+17 6.87e+00 7.11e+15  -5.7 2.50e+11 -11.4 7.87e-03 4.18e-03f  1
In iteration 264, 1 Slack too small, adjusting variable bound
 265 -6.1616512e+17 6.87e+00 1.10e+16  -5.7 7.49e+11 -11.9 6.78e-02 1.73e-07f  1
 266 -6.1616512e+17 2.81e+00 1.02e+16  -5.7 2.25e+12 -12.4 6.34e-08 6.07e-04f  1
 267 -6.1616512e+17 2.81e+00 1.04e+16  -5.7 6.74e+12 -12.8 1.22e-05 2.15e-09f  1
 268 -6.1616512e+17 2.81e+00 1.04e+16  -5.7 3.16e+11 -11.5 2.85e-09 2.08e-05f  1
 269 -6.1616512e+17 2.81e+00 1.17e+16  -5.7 1.19e+11 -11.1 1.50e-02 1.69e-08f  1
iter    objective    inf_pr   inf_du lg(mu)  ||d||  lg(rg) alpha_du alpha_pr  ls
 270 -6.1616513e+17 2.80e+00 1.17e+16  -5.7 3.56e+11 -11.6 6.27e-08 6.69e-04f  1
In iteration 270, 1 Slack too small, adjusting variable bound
 271 -6.1616519e+17 1.86e+02 1.02e+16  -5.7 1.07e+12 -12.0 4.70e-10 6.06e-02f  1
 272 -6.1616519e+17 1.86e+02 1.03e+16  -5.7 7.57e+07  -2.2 2.65e-09 7.97e-09h  1
 273 -6.1616519e+17 1.86e+02 1.05e+16  -5.7 7.42e+07  -2.7 3.29e-09 6.42e-08h  1
 274 -6.1616519e+17 1.86e+02 6.72e+15  -5.7 7.66e+07  -3.1 3.87e-06 9.32e-07h  1
 275 -6.1616519e+17 1.86e+02 5.37e+16  -5.7 7.63e+07  -3.6 7.36e-12 1.11e-04f  1
 276 -6.1616519e+17 3.20e+02 5.08e+16  -5.7 1.23e+05  -4.1 4.32e-07 3.38e-02f  1
 277 -6.1616519e+17 3.20e+02 5.05e+16  -5.7 3.71e+04  -4.6 3.39e-02 2.64e-06f  1
 278 -6.1616519e+17 3.20e+02 5.05e+16  -5.7 4.69e+06  -5.0 5.70e-06 5.11e-12h  1
 279 -6.1616519e+17 3.20e+02 5.05e+16  -5.7 5.07e+07  -5.5 2.92e-12 2.22e-04f  1
Reallocating memory for MA57: lfact (2881)
iter    objective    inf_pr   inf_du lg(mu)  ||d||  lg(rg) alpha_du alpha_pr  ls
 280 -6.1616519e+17 2.99e+02 4.79e+16  -5.7 1.25e+05  -5.1 3.19e-06 6.53e-02f  1
 281 -6.1616519e+17 2.99e+02 4.79e+16  -5.7 7.16e-01   4.7 7.98e-09 3.85e-07h  1
 282 -6.1616519e+17 2.99e+02 4.79e+16  -5.7 1.97e+01   4.3 4.08e-08 1.94e-06h  1
 283 -6.1616519e+17 2.99e+02 4.79e+16  -5.7 1.15e+00   5.6 2.04e-05 1.61e-04f  1
 284 -6.1616519e+17 2.99e+02 4.78e+16  -5.7 1.83e-03   5.1 9.86e-03 7.65e-07h  1
 285 -6.1616519e+17 2.99e+02 4.78e+16  -5.7 5.79e-01   4.6 1.17e-05 2.66e-05h  1
 286 -6.1616519e+17 2.99e+02 4.78e+16  -5.7 8.72e+00   4.2 4.31e-12 7.64e-06f  1
 287 -6.1616519e+17 2.48e+02 4.14e+16  -5.7 9.85e-01   3.7 4.99e-03 1.69e-01f  1
 288 -6.1616519e+17 2.48e+02 4.14e+16  -5.7 8.19e-01   5.9 1.12e-09 3.47e-09h  1
 289 -6.1616519e+17 2.48e+02 3.96e+16  -5.7 8.19e-01   5.4 1.69e-01 1.55e-06f  1
iter    objective    inf_pr   inf_du lg(mu)  ||d||  lg(rg) alpha_du alpha_pr  ls
 290 -6.1616519e+17 2.48e+02 3.96e+16  -5.7 8.19e-01   5.0 5.29e-06 1.95e-10h  1
 291 -6.1616519e+17 2.48e+02 3.96e+16  -5.7 8.19e-01   4.5 6.02e-10 3.28e-04f  1
 292 -6.1616519e+17 8.53e+01 1.72e+16  -5.7 8.18e-01   4.0 2.50e-01 6.56e-01h  1
 293 -6.1616519e+17 8.53e+01 1.29e+16  -5.7 2.81e-01   3.5 6.57e-01 3.52e-06h  1
In iteration 293, 1 Slack too small, adjusting variable bound
 294 -6.1616519e+17 8.53e+01 1.29e+16  -5.7 2.80e-01   3.1 5.92e-05 3.94e-09h  1
 295 -6.1616519e+17 1.60e-02 2.25e+15  -5.7 2.81e-01   2.6 2.95e-05 1.00e+00h  1
 296 -6.1616519e+17 3.64e-11 4.16e+09  -5.7 7.84e-03   2.1 1.00e+00 1.00e+00h  1
 297 -6.1616519e+17 2.61e-11 4.25e+06  -5.7 2.35e-02   1.6 9.99e-01 1.00e+00f  1
 298 -6.1616519e+17 3.12e-11 4.22e+06  -5.7 7.05e-02   1.2 7.49e-03 4.56e-03f  1
 299 -6.1616519e+17 8.51e-11 4.66e+05  -5.7 2.12e-01   0.7 8.89e-01 1.00e+00f  1
iter    objective    inf_pr   inf_du lg(mu)  ||d||  lg(rg) alpha_du alpha_pr  ls
 300 -6.1616519e+17 6.66e-11 3.74e+05  -5.7 6.35e-01   0.2 1.99e-01 4.84e-01f  1
 301 -6.1616519e+17 9.23e-12 1.71e+03  -5.7 1.90e+00  -0.3 9.95e-01 1.00e+00f  1
 302 -6.1616519e+17 2.74e-11 1.21e+03  -5.7 5.71e+00  -0.8 7.97e-03 1.57e-02f  1
 303 -6.1616519e+17 3.27e-10 1.00e+00  -5.7 1.71e+01  -1.2 1.00e+00 1.00e+00f  1
 304 -6.1616519e+17 2.52e-10 1.00e+00  -5.7 5.14e+01  -1.7 1.00e+00 1.00e+00f  1
 305 -6.1616519e+17 1.47e-10 1.00e+00  -5.7 1.54e+02  -2.2 1.00e+00 1.00e+00f  1
 306 -6.1616519e+17 4.13e-11 1.00e+00  -5.7 4.63e+02  -2.7 1.00e+00 1.00e+00f  1
 307 -6.1616519e+17 2.46e-11 1.00e+00  -5.7 1.39e+03  -3.1 1.00e+00 1.00e+00f  1
 308 -6.1616519e+17 2.83e-11 1.00e+00  -5.7 4.17e+03  -3.6 1.00e+00 1.00e+00f  1
 309 -6.1616519e+17 1.99e-11 1.00e+00  -5.7 1.25e+04  -4.1 1.00e+00 1.00e+00f  1
iter    objective    inf_pr   inf_du lg(mu)  ||d||  lg(rg) alpha_du alpha_pr  ls
 310 -6.1616519e+17 2.50e-11 1.00e+00  -5.7 3.75e+04  -4.6 1.00e+00 1.00e+00f  1
 311 -6.1616519e+17 1.06e-10 1.00e+00  -5.7 1.12e+05  -5.1 1.00e+00 1.00e+00f  1
 312 -6.1616519e+17 7.67e-10 1.00e+00  -5.7 3.37e+05  -5.5 1.00e+00 1.00e+00f  1
 313 -6.1616519e+17 6.36e-09 1.00e+00  -5.7 1.01e+06  -6.0 1.00e+00 1.00e+00f  1
 314 -6.1616519e+17 5.74e-08 1.00e+00  -5.7 3.04e+06  -6.5 1.00e+00 1.00e+00f  1
 315 -6.1616519e+17 5.17e-07 1.00e+00  -5.7 9.11e+06  -7.0 1.00e+00 1.00e+00f  1
 316 -6.1616519e+17 4.66e-06 1.00e+00  -5.7 2.73e+07  -7.4 1.00e+00 1.00e+00f  1
 317 -6.1616519e+17 4.24e-05 1.00e+00  -5.7 8.20e+07  -7.9 1.00e+00 1.00e+00f  1
 318 -6.1616519e+17 3.92e-04 1.00e+00  -5.7 2.46e+08  -8.4 1.00e+00 1.00e+00f  1
 319 -6.1616519e+17 3.84e-03 1.00e+00  -5.7 7.38e+08  -8.9 1.00e+00 1.00e+00f  1
iter    objective    inf_pr   inf_du lg(mu)  ||d||  lg(rg) alpha_du alpha_pr  ls
 320 -6.1616519e+17 4.55e-02 1.00e+00  -5.7 2.21e+09  -9.3 1.00e+00 1.00e+00f  1
 321 -6.1616520e+17 1.30e+00 1.00e+00  -5.7 6.64e+09  -9.8 1.00e+00 1.00e+00f  1
 322 -6.1616520e+17 8.73e+00 1.00e+00  -5.7 2.49e+09  -9.4 6.13e-01 1.00e+00f  1
 323 -6.1616521e+17 3.35e+00 1.00e+00  -5.7 7.47e+09  -9.9 1.00e+00 1.00e+00f  1
 324 -6.1616523e+17 4.67e+00 1.00e+00  -5.7 2.24e+10 -10.4 1.00e+00 1.00e+00f  1
 325 -6.1616530e+17 1.23e-01 1.00e+00  -5.7 6.72e+10 -10.8 1.00e+00 1.00e+00f  1
 326 -6.1616550e+17 3.03e+00 1.00e+00  -5.7 2.02e+11 -11.3 1.00e+00 1.00e+00f  1
 327 -6.1616611e+17 3.45e+00 1.00e+00  -5.7 6.05e+11 -11.8 1.00e+00 1.00e+00f  1
 328 -6.1616613e+17 2.86e+00 1.00e+00  -5.7 2.84e+10 -10.5 3.75e-01 1.00e+00f  1
 329 -6.1616622e+17 9.38e-01 1.00e+00  -5.7 8.51e+10 -10.9 1.00e+00 1.00e+00f  1
iter    objective    inf_pr   inf_du lg(mu)  ||d||  lg(rg) alpha_du alpha_pr  ls
 330 -6.1616648e+17 8.60e-01 1.00e+00  -5.7 2.55e+11 -11.4 1.00e+00 1.00e+00f  1
 331 -6.1616724e+17 1.30e-01 1.00e+00  -5.7 7.66e+11 -11.9 1.00e+00 1.00e+00f  1
 332 -6.1616954e+17 6.88e-01 2.28e+00  -5.7 2.30e+12 -12.4 8.85e-01 1.00e+00f  1
 333 -6.1617120e+17 3.20e+01 5.09e+01  -5.7 6.89e+12 -12.8 2.09e-01 2.41e-01f  1
 334 -6.1619188e+17 8.39e+00 1.00e+00  -5.7 2.07e+13 -13.3 1.00e+00 1.00e+00f  1
 335 -6.1619964e+17 2.68e+00 1.00e+00  -5.7 7.76e+12 -12.9 1.00e+00 1.00e+00f  1
 336 -6.1620254e+17 4.81e+00 2.43e+01  -5.7 2.91e+12 -12.5 4.46e-01 1.00e+00f  1
 337 -6.1621127e+17 1.25e+00 1.00e+00  -5.7 8.72e+12 -12.9 1.00e+00 1.00e+00f  1
 338 -6.1623744e+17 1.07e+00 1.00e+00  -5.7 2.62e+13 -13.4 1.00e+00 1.00e+00f  1
 339 -6.1631597e+17 4.00e-01 1.00e+00  -5.7 7.85e+13 -13.9 1.00e+00 1.00e+00f  1
iter    objective    inf_pr   inf_du lg(mu)  ||d||  lg(rg) alpha_du alpha_pr  ls
 340 -6.1655154e+17 6.98e-01 9.89e+00  -5.7 2.36e+14 -14.4 8.75e-01 1.00e+00f  1
 341 -6.1658674e+17 3.29e+00 6.30e+02  -5.7 7.07e+14 -14.8 9.90e-02 4.98e-02f  1
 342 -6.1658674e+17 2.01e-02 1.00e+00  -5.7 1.01e+07  -7.0 1.00e+00 1.00e+00f  1
 343 -6.1658674e+17 7.39e-04 1.00e+00  -5.7 3.03e+07  -7.5 1.00e+00 1.00e+00f  1
 344 -6.1658674e+17 8.92e-04 1.00e+00  -5.7 9.10e+07  -8.0 1.00e+00 1.00e+00f  1
 345 -6.1658674e+17 7.76e-04 1.00e+00  -5.7 2.73e+08  -8.4 1.00e+00 1.00e+00f  1
 346 -6.1658674e+17 8.87e-03 1.00e+00  -5.7 8.19e+08  -8.9 1.00e+00 1.00e+00f  1
 347 -6.1658674e+17 1.98e-01 1.00e+00  -5.7 2.46e+09  -9.4 1.00e+00 1.00e+00f  1
 348 -6.1658674e+17 2.86e-01 1.00e+00  -5.7 9.21e+08  -9.0 1.00e+00 1.00e+00f  1
 349 -6.1658674e+17 5.20e-01 1.00e+00  -5.7 3.45e+08  -8.5 1.00e+00 1.00e+00f  1
iter    objective    inf_pr   inf_du lg(mu)  ||d||  lg(rg) alpha_du alpha_pr  ls
 350 -6.1658674e+17 7.45e+00 1.13e+02  -5.7 1.30e+08  -8.1 3.09e-01 1.00e+00f  1
 351 -6.1658674e+17 2.06e+00 1.00e+00  -5.7 3.89e+08  -8.6 1.00e+00 1.00e+00f  1
 352 -6.1658675e+17 6.99e-01 1.00e+00  -5.7 1.17e+09  -9.1 1.00e+00 1.00e+00f  1
 353 -6.1658675e+17 3.43e-01 1.00e+00  -5.7 3.50e+09  -9.5 1.00e+00 1.00e+00f  1
 354 -6.1658676e+17 3.38e-02 1.00e+00  -5.7 1.05e+10 -10.0 1.00e+00 1.00e+00f  1
 355 -6.1658679e+17 2.37e-02 1.00e+00  -5.7 3.15e+10 -10.5 1.00e+00 1.00e+00f  1
 356 -6.1658689e+17 1.18e-04 1.00e+00  -5.7 9.44e+10 -11.0 1.00e+00 1.00e+00f  1
 357 -6.1658717e+17 2.24e-08 1.00e+00  -5.7 2.83e+11 -11.5 1.00e+00 1.00e+00f  1
 358 -6.1658802e+17 3.73e-09 1.00e+00  -5.7 8.50e+11 -11.9 1.00e+00 1.00e+00f  1
 359 -6.1659057e+17 7.45e-09 1.00e+00  -5.7 2.55e+12 -12.4 1.00e+00 1.00e+00f  1
iter    objective    inf_pr   inf_du lg(mu)  ||d||  lg(rg) alpha_du alpha_pr  ls
 360 -6.1659822e+17 4.72e-09 1.00e+00  -5.7 7.65e+12 -12.9 1.00e+00 1.00e+00f  1
 361 -6.1662117e+17 7.45e-09 1.00e+00  -5.7 2.29e+13 -13.4 1.00e+00 1.00e+00f  1
 362 -6.1669002e+17 1.25e-08 1.00e+00  -5.7 6.88e+13 -13.8 1.00e+00 1.00e+00f  1
 363 -6.1689656e+17 1.12e-07 1.00e+00  -5.7 2.07e+14 -14.3 1.00e+00 1.00e+00f  1
 364 -6.1751619e+17 1.01e-06 1.00e+00  -5.7 6.20e+14 -14.8 1.00e+00 1.00e+00f  1
 365 -6.1937508e+17 9.06e-06 1.00e+00  -5.7 1.86e+15 -15.3 1.00e+00 1.00e+00f  1
 366 -6.2495175e+17 8.10e-05 1.00e+00  -5.7 5.58e+15 -15.7 1.00e+00 1.00e+00f  1
 367 -6.4168176e+17 7.14e-04 1.00e+00  -5.7 1.67e+16 -16.2 1.00e+00 1.00e+00f  1
 368 -6.9187180e+17 6.06e-03 1.12e+00  -5.7 5.02e+16 -16.7 1.00e+00 1.00e+00f  1
 369 -8.4244193e+17 4.58e-02 8.44e+00  -5.7 1.51e+17 -17.2 1.00e+00 1.00e+00f  1
iter    objective    inf_pr   inf_du lg(mu)  ||d||  lg(rg) alpha_du alpha_pr  ls
 370 -1.2941523e+18 2.50e-01 4.61e+01  -5.7 4.52e+17 -17.7 1.00e+00 1.00e+00f  1
 371 -2.6492834e+18 5.61e-01 1.03e+02  -5.7 1.36e+18 -18.1 1.00e+00 1.00e+00f  1
 372 -6.7146766e+18 1.55e+00 3.19e+01  -5.7 4.07e+18 -18.6 1.00e+00 1.00e+00f  1
 373 -8.2391991e+18 1.15e+02 4.42e+01  -5.7 1.52e+18 -18.2 1.15e-01 1.00e+00f  1
 374 -1.2812767e+19 2.91e+01 5.63e+01  -5.7 4.57e+18 -18.7 1.00e+00 1.00e+00f  1
 375 -2.6533469e+19 8.61e+00 8.67e+01  -5.7 1.37e+19 -19.1 7.99e-01 1.00e+00f  1
 376 -6.7695576e+19 1.03e+01 1.01e+02  -5.7 4.12e+19 -19.6 1.00e+00 1.00e+00f  1
 377 -1.6769558e+20 1.18e+01 6.93e+01  -5.7 1.00e+20 -20.0 5.61e-01 1.00e+00f  1

Number of Iterations....: 377

                                   (scaled)                 (unscaled)
Objective...............:  -1.6769557562505498e+20   -1.6769557562505498e+20
Dual infeasibility......:   6.9321450833300105e+01    6.9321450833300105e+01
Constraint violation....:   1.1848771690648718e+01    1.1848771690648718e+01
Complementarity.........:   2.0699502778388866e-06    2.0699502778388866e-06
Overall NLP error.......:   6.9321450833300105e+01    6.9321450833300105e+01


Number of objective function evaluations             = 391
Number of objective gradient evaluations             = 376
Number of equality constraint evaluations            = 408
Number of inequality constraint evaluations          = 408
Number of equality constraint Jacobian evaluations   = 380
Number of inequality constraint Jacobian evaluations = 380
Number of Lagrangian Hessian evaluations             = 377
Total CPU secs in IPOPT (w/o function evaluations)   =      0.177
Total CPU secs in NLP function evaluations           =      0.017

EXIT: Iterates diverging; problem might be unbounded.

************************ CUTEst statistics ************************


 Package used            :  IPOPT
 Problem                 :  TRO6X2    
 # variables             =              45
 # constraints           =              21
 # objective functions   =        0.7680000E+03
 # objective gradients   =        0.3770000E+03
 # objective Hessians    =        0.3760000E+03
 # Hessian-vector prdct  =        0.0000000E+00
 # constraints functions =        0.7900000E+03
 # constraints gradients =        0.3820000E+03
 # constraints Hessians  =        0.3760000E+03
 Exit code               =               4
 Final f                 =  -0.1676956E+21
 Set up time             =            0.00 seconds
 Solve time              =            0.44 seconds


******************************************************************

System Time =       0.1800000072 s.
